language Essence 1.3

$ formula:  (7*n^2-3*n-2)/2 * (-1)^(n-1) + 3*Sum_{i=2..n} 2^(i+1) * (2*i-4)!/(i!*(i-2)!) * binomial(n-i+2, 2) * (-1)^(n-i)
$ result:  2740

letting length be 7
letting avoiding be [[1, 3, 4, 2]]
